21 700
0 0 150 150 0 0 3815 0 0 0
1 347 96 110 10 67 768 90 0 220
2 474 95 104 20 71 819 90 0 313
3 135 91 104 10 105 610 90 0 265
4 212 87 105 30 218 684 90 0 56
5 553 78 114 10 80 507 90 0 196
6 67 71 102 10 665 811 90 0 21
7 137 75 89 20 782 1529 90 0 153
8 229 59 110 30 478 1206 90 0 166
9 503 59 124 10 2026 2629 90 0 526
10 580 70 128 20 2174 2685 90 0 300
11 220 63 89 -10 823 1284 90 347 0
12 313 73 104 -20 306 984 90 474 0
13 265 57 119 -10 1081 1565 90 135 0
14 56 83 105 -30 439 651 90 212 0
15 196 62 122 -10 953 1501 90 553 0
16 21 50 104 -10 732 1154 90 67 0
17 153 56 117 -20 1334 1497 90 137 0
18 166 86 133 -30 2337 2920 90 229 0
19 526 108 131 -10 3065 3568 90 503 0
20 300 71 126 -20 2298 2745 90 580 0

